 Code  3132
 Dimension, Fixed Cost
   100        3000
 Facility, Client, Transportation Cost
     1        1           1
     1        3           1
     1       26           4
     1       27           4
     1       31           1
     1       44           3
     1       49           1
     1       55           3
     1       56           1
     1       62           0
     1       67           4
     1       68           3
     1       76           0
     1       81           1
     1       82           4
     1       89           2
     1       95           3
     1       96           0
     1       98           4
     1      100           0
     2        5           3
     2       14           0
     2       27           0
     2       32           0
     2       34           4
     2       44           1
     2       76           4
     2       81           0
     2       84           2
     2       99           0
     3       10           3
     3       11           4
     3       30           4
     3       34           2
     3       37           2
     3       43           0
     3       45           1
     3       51           3
     3       67           2
     3       73           3
     3       77           1
     3       80           0
     3       83           4
     3       89           4
     4        6           0
     4        8           0
     4       11           0
     4       27           3
     4       39           2
     4       56           3
     4       62           0
     4       73           2
     4       85           3
     4       91           4
     4       94           3
     4       98           2
     5       12           2
     5       15           1
     5       20           4
     5       23           3
     5       24           3
     5       25           4
     5       36           0
     5       44           0
     5       45           2
     5       83           2
     5       96           1
     6        7           4
     6       22           3
     6       33           2
     6       71           2
     6       99           1
     7        9           3
     7       24           0
     7       41           1
     7       54           0
     7       66           2
     7       68           1
     7       76           0
     7       82           1
     8        2           3
     8        8           4
     8       15           0
     8       22           1
     8       33           3
     8       45           0
     8       47           1
     8       53           4
     8       62           0
     8       69           4
     8       87           4
     9        7           1
     9       16           2
     9       29           4
     9       39           0
     9       50           1
     9       59           0
     9       62           4
     9       70           3
     9       71           0
     9       81           0
     9       86           0
     9       89           1
    10        5           0
    10       10           4
    10       24           4
    10       46           0
    10       78           4
    10       83           4
    10       94           1
    11       45           2
    11       55           4
    11       59           3
    11       74           2
    11       76           2
    11       78           2
    12        4           4
    12       10           0
    12       12           0
    12       16           1
    12       31           0
    12       47           1
    12       80           1
    12       84           3
    12       91           4
    12       96           2
    13        2           1
    13       13           1
    13       31           4
    13       33           4
    13       34           3
    13       42           2
    13       49           2
    13       95           2
    13       96           2
    14        3           4
    14        4           4
    14        9           2
    14       46           0
    14       55           1
    14       65           4
    14       74           2
    14       79           0
    14       94           4
    15        1           0
    15       17           4
    15       33           2
    15       52           1
    15       55           2
    15       57           0
    15       64           1
    15       72           2
    15       73           2
    15       91           4
    15       97           1
    16       16           2
    16       20           4
    16       58           4
    16       66           0
    16       69           2
    16       90           0
    17       12           2
    17       14           1
    17       19           4
    17       23           1
    17       26           1
    17       27           3
    17       41           1
    17       56           0
    17       64           1
    17       67           3
    17       70           3
    17       79           2
    17       83           2
    18       19           0
    18       22           4
    18       28           3
    18       29           0
    18       30           4
    18       36           1
    18       38           4
    18       42           3
    18       44           1
    18       45           2
    18       56           4
    18       60           4
    18       62           2
    18       64           4
    18       75           2
    18       87           4
    18       90           2
    19        3           2
    19        8           2
    19       62           3
    19       73           0
    19       74           4
    19       76           1
    19       81           0
    19       82           0
    19       96           0
    20        8           2
    20       17           0
    20       37           0
    20       38           1
    20       40           4
    20       61           0
    20       70           3
    20       75           2
    20       82           2
    20       90           4
    21       18           4
    21       24           4
    21       25           0
    21       38           1
    21       39           3
    21       45           4
    21       47           1
    21       52           4
    21       61           4
    21       69           3
    21       75           4
    21       92           2
    21       93           3
    22        3           4
    22       42           1
    22       47           1
    22       58           1
    22       79           3
    22       88           3
    22       95           4
    23        8           3
    23       11           3
    23       26           1
    23       30           3
    23       50           0
    23       55           0
    23       79           2
    23       91           0
    23       99           0
    24       13           4
    24       26           1
    24       50           1
    24       58           4
    24       63           2
    24       69           3
    24       70           4
    24       73           2
    24       74           3
    24       79           1
    24       81           0
    24       88           3
    25        6           2
    25       12           2
    25       30           2
    25       42           0
    25       63           2
    25       65           0
    25       86           3
    26        1           2
    26        2           1
    26       24           2
    26       25           0
    26       34           4
    26       50           3
    26       51           1
    26       59           3
    26       64           4
    26       66           2
    26       68           4
    26       74           1
    26       75           4
    26       80           0
    26       90           2
    26       96           3
    27        8           3
    27       22           0
    27       35           3
    27       36           1
    27       37           4
    27       72           4
    27       94           3
    27       97           3
    28        7           3
    28       15           2
    28       25           4
    28       27           3
    28       29           1
    28       82           4
    28       91           2
    28       98           0
    29        2           0
    29        4           0
    29       14           1
    29       23           0
    29       47           4
    29       52           0
    29       56           1
    29       60           4
    29       87           1
    29       93           0
    30        6           4
    30       18           1
    30       28           0
    30       39           3
    30       43           2
    30       45           2
    30       47           2
    30       56           0
    30       65           0
    30       66           1
    30       67           4
    31        5           1
    31        9           2
    31       14           2
    31       26           0
    31       30           2
    31       43           1
    31       46           1
    31       52           2
    31       60           1
    31       61           1
    31       77           2
    31       82           3
    31       89           3
    31       95           2
    32        4           4
    32       37           2
    32       38           3
    32       44           4
    32       49           1
    32       50           0
    32       65           3
    32       73           3
    32       78           3
    32       79           1
    33       16           3
    33       34           4
    33       61           1
    33       75           4
    33       86           0
    33       92           2
    33      100           1
    34       24           2
    34       47           0
    34       54           0
    34       56           2
    34       77           4
    35       11           2
    35       33           3
    35       36           1
    35       50           2
    35       59           4
    35       60           0
    35       79           3
    36       14           4
    36       15           2
    36       16           3
    36       27           4
    36       31           2
    36       32           1
    36       40           4
    36       58           2
    36       82           0
    36       84           1
    36       90           3
    36       95           4
    37        8           0
    37       25           1
    37       41           0
    37       49           2
    37       57           3
    37       65           0
    37       80           0
    37       85           1
    38       16           2
    38       25           3
    38       28           4
    38       32           0
    38       34           4
    38       36           3
    38       54           4
    38       59           1
    38       84           1
    38       92           2
    39        4           1
    39       20           4
    39       34           3
    39       48           4
    39       52           1
    39       63           1
    39       65           1
    39       89           3
    39       93           3
    40       35           3
    40       40           2
    40       53           3
    40       58           2
    40       61           1
    40       66           4
    41        5           2
    41       14           1
    41       28           0
    41       31           3
    41       48           0
    41       66           0
    41       78           2
    41       89           2
    41       90           2
    41       91           0
    42        5           1
    42        9           3
    42       12           4
    42       48           2
    42       70           3
    42       71           2
    42       74           4
    42       80           3
    42       86           0
    42       93           0
    42       95           2
    43       23           4
    43       33           3
    43       40           1
    43       43           0
    43       70           1
    43       84           3
    43       99           1
    43      100           2
    44        1           2
    44        2           0
    44        3           1
    44        6           4
    44       10           4
    44       47           0
    44       48           0
    44       50           3
    44       51           1
    44       73           0
    44       85           2
    44       87           2
    44       88           0
    44       92           4
    45        6           0
    45       21           3
    45       24           2
    45       28           3
    45       32           1
    45       40           3
    45       55           2
    45       57           0
    45       68           4
    45       78           3
    45       84           2
    45       93           1
    46        5           0
    46       17           3
    46       27           4
    46       31           3
    46       39           3
    46       50           1
    46       54           3
    46       64           2
    46       92           3
    47        3           1
    47        9           2
    47       20           3
    47       39           2
    47       49           0
    47       57           3
    47       61           0
    47       76           1
    47       79           1
    47       80           2
    47       85           4
    47       90           3
    47       93           4
    47       96           4
    48        8           3
    48       18           1
    48       21           4
    48       38           4
    48       47           1
    48       48           0
    48       49           3
    48       53           4
    48       54           3
    48       81           3
    48       98           1
    49        4           0
    49       48           2
    49       58           4
    49       77           1
    49       94           4
    50        5           4
    50       18           1
    50       20           2
    50       27           4
    50       31           4
    50       32           4
    50       35           2
    50       38           3
    50       58           4
    50       65           4
    50       99           0
    50      100           2
    51       10           4
    51       11           2
    51       23           4
    51       29           4
    51       35           2
    51       40           3
    51       67           0
    51       73           3
    51       98           3
    51      100           1
    52        7           3
    52        8           0
    52       29           1
    52       34           3
    52       41           2
    52       51           3
    52       52           4
    52       53           3
    52       72           0
    52       77           4
    52       86           2
    52       87           2
    52       97           0
    53        4           3
    53        9           0
    53       14           2
    53       64           3
    53       69           1
    53       96           3
    54        5           4
    54        8           4
    54       17           2
    54       18           3
    54       23           0
    54       29           3
    54       31           3
    54       37           2
    54       55           1
    54       64           0
    54       66           4
    54       88           0
    54       98           0
    55        4           2
    55       22           0
    55       23           3
    55       44           0
    55       46           4
    55       67           2
    55       75           0
    55       96           0
    56        3           1
    56       32           2
    56       55           1
    56       67           3
    56       87           1
    56       97           0
    56      100           0
    57       21           0
    57       24           0
    57       32           4
    57       33           1
    57       50           4
    57       57           3
    57       63           4
    57       66           3
    57       95           3
    57      100           3
    58        1           2
    58        3           2
    58       25           4
    58       28           4
    58       29           2
    58       32           1
    58       40           4
    58       48           1
    58       51           3
    58       59           0
    58       60           0
    58       61           4
    58       72           2
    58       81           3
    58       84           2
    59       11           1
    59       23           1
    59       42           3
    59       43           4
    59       46           3
    59       47           0
    59       68           3
    59       85           3
    59       90           4
    60        6           1
    60       10           0
    60       13           3
    60       15           2
    60       29           3
    60       35           1
    60       38           4
    60       54           2
    60       67           2
    60       71           1
    60       84           3
    60       85           1
    61        7           4
    61       15           3
    61       19           1
    61       37           1
    61       89           4
    61       98           3
    62       19           4
    62       20           3
    62       22           2
    62       32           1
    62       33           0
    62       34           3
    62       36           3
    62       39           2
    62       63           0
    62       67           3
    62       68           2
    62       75           1
    62       76           4
    62       78           3
    62       94           1
    62       98           4
    63        4           3
    63        5           3
    63        7           2
    63       15           0
    63       24           4
    63       25           1
    63       40           4
    63       57           4
    63       70           0
    63       72           4
    63       77           4
    63       86           1
    63       99           0
    64        1           2
    64       12           1
    64       18           2
    64       26           2
    64       29           2
    64       39           0
    64       43           1
    64       45           1
    64       57           2
    64       74           0
    64       85           3
    64       99           3
    65        2           0
    65        5           2
    65       18           4
    65       22           3
    65       26           4
    65       43           1
    65       59           4
    65       61           4
    65       63           4
    65       64           3
    65       65           4
    65       70           4
    65       83           0
    65       88           4
    65       92           1
    65       97           2
    66       46           4
    66       54           2
    66       68           1
    66       69           3
    66       74           1
    66       82           1
    66       85           1
    66       86           1
    66       88           2
    67        1           2
    67       10           1
    67       19           4
    67       37           1
    67       38           0
    67       43           2
    67       86           3
    68       16           0
    68       62           0
    68       65           0
    68       71           4
    68       74           2
    68       75           0
    68       99           3
    69       10           2
    69       15           0
    69       20           1
    69       31           3
    69       35           4
    69       36           2
    69       61           1
    69       63           0
    69       78           1
    69       84           0
    69       92           2
    69       98           3
    70        4           3
    70        7           4
    70       23           1
    70       25           0
    70       30           2
    70       42           4
    70       53           2
    70       67           0
    70       71           3
    70       87           0
    70       99           3
    71       39           0
    71       41           4
    71       42           1
    71       44           3
    71       49           0
    71       51           3
    71       52           2
    71       63           2
    71       80           1
    71       87           2
    71       88           4
    72        2           2
    72       13           0
    72       18           2
    72       21           3
    72       36           2
    72       37           2
    72       60           1
    72       74           2
    72       93           1
    73        1           0
    73       13           0
    73       15           3
    73       35           0
    73       43           1
    73       54           1
    73       57           0
    73       76           0
    73       89           3
    73       91           1
    74        6           1
    74       10           3
    74       19           2
    74       34           2
    74       54           4
    74       66           0
    74       71           3
    74       87           0
    75        9           4
    75       14           0
    75       17           2
    75       22           1
    75       60           1
    75       88           3
    76       10           2
    76       37           0
    76       41           0
    76       49           0
    76       51           2
    76       62           1
    76       71           4
    76       84           1
    76       86           2
    76      100           3
    77        6           3
    77       11           0
    77       16           2
    77       28           2
    77       40           2
    77       53           0
    77       93           3
    77       94           4
    77       95           4
    78       21           4
    78       35           4
    78       53           2
    78       80           3
    79       20           0
    79       30           4
    79       33           2
    79       43           0
    79       54           2
    79       55           4
    79       58           2
    79       70           0
    79       77           0
    79       97           3
    79      100           3
    80        6           4
    80       28           2
    80       35           3
    80       38           1
    80       49           2
    80       72           2
    80       77           1
    80       81           4
    81       13           0
    81       26           4
    81       41           2
    81       81           1
    81       94           1
    82        7           2
    82       14           2
    82       19           2
    82       30           2
    82       53           3
    82       60           3
    82       75           0
    82       77           2
    82       80           4
    82       88           1
    83        2           0
    83       15           2
    83       26           2
    83       35           1
    83       45           1
    83       48           4
    83       50           0
    83       59           0
    83       68           0
    83       69           4
    83       82           4
    83       92           4
    83       93           2
    83       94           3
    83       97           2
    84       17           4
    84       21           2
    84       30           4
    84       44           1
    84       52           3
    84       69           3
    84       72           1
    84       97           3
    85        7           0
    85       17           3
    85       18           4
    85       31           0
    85       36           1
    85       42           1
    85       44           3
    85       51           3
    85       52           0
    85       53           0
    85       56           3
    85       58           3
    85       91           2
    86        9           4
    86       11           2
    86       13           2
    86       46           4
    86       53           1
    86       57           3
    86       61           4
    86       63           4
    86       68           3
    86       73           1
    86       83           2
    86       88           2
    86       89           1
    87       22           4
    87       24           3
    87       28           0
    87       45           2
    87       60           3
    87       62           1
    87       64           1
    87       81           4
    87       85           2
    88        6           1
    88       17           2
    88       21           0
    88       55           1
    88       58           2
    88       64           2
    88       73           3
    88       78           3
    88       82           1
    88       96           4
    89       14           1
    89       17           0
    89       19           3
    89       22           4
    90        1           2
    90       12           2
    90       19           4
    90       20           2
    90       26           0
    90       40           2
    90       41           0
    90       79           2
    91        2           3
    91        7           3
    91        9           4
    91       21           4
    91       44           1
    91       46           4
    91       56           4
    91       69           4
    91       71           1
    91       76           1
    91       83           2
    91       92           0
    92       30           3
    92       39           4
    92       42           2
    92       60           0
    92       68           2
    92       72           0
    92       76           3
    92       91           3
    92       97           1
    92      100           2
    93        2           1
    93        9           3
    93       18           3
    93       20           3
    93       27           1
    93       38           3
    93       41           2
    93       52           0
    93       91           2
    94        1           0
    94        3           0
    94       13           4
    94       19           1
    94       27           2
    94       46           2
    94       51           2
    94       66           2
    94       69           4
    94       75           2
    94       89           0
    95       11           4
    95       23           0
    95       42           1
    95       46           1
    95       49           0
    95       62           1
    95       70           3
    95       83           0
    95       92           0
    95       97           2
    96       11           0
    96       16           4
    96       17           2
    96       25           2
    96       41           0
    96       57           2
    96       65           3
    96       83           0
    97        3           1
    97       12           2
    97       16           3
    97       32           2
    97       59           1
    97       72           2
    97       80           3
    97       93           2
    97       94           2
    98       12           4
    98       13           2
    98       21           1
    98       29           1
    98       48           3
    98       59           3
    98       77           2
    98       78           4
    98       79           4
    98       83           2
    98       85           0
    98       90           0
    98       99           4
    99       12           0
    99       13           2
    99       21           3
    99       36           0
    99       48           2
    99       51           0
    99       63           0
    99       78           0
    99       87           1
    99       90           4
    99       95           2
   100       28           0
   100       33           3
   100       37           2
   100       56           2
   100       71           2
   100       72           1
   100       86           4
   100       95           4
   100       98           2
